sat
(:arith-branch          5
 :arith-cube-calls      1
 :arith-dio-calls       1
 :arith-lower           25
 :arith-make-feasible   8
 :arith-max-columns     61
 :arith-max-rows        32
 :arith-patches         6
 :arith-patches-success 1
 :arith-upper           10
 :decisions             5
 :final-checks          6
 :max-memory            19.42
 :memory                18.73
 :mk-bool-var           35
 :num-allocs            914203
 :num-checks            1
 :rlimit-count          6216
 :time                  0.04
 :total-time            0.10)
